53835
26, 55, 28, 6, 3, 43, 13, 41, 32, 24, 35, 5, 37, 51, 40, 7, 20, 50, 38, 8, 44, 19, 49, 48, 17, 23, 21, 29, 22, 10, 9, 14, 2, 16, 39, 46, 36, 15, 52, 45, 11, 25, 31, 27, 1, 33, 42, 12, 18, 4, 30, 47, 54, 34, 53
